c Random generated cnf formula, satisfiable: false
p cnf 10 50
1 -10 3 0
-7 1 2 0
-4 -8 2 0
-3 -8 -1 0
1 8 10 0
-4 -6 -3 0
10 8 3 0
-1 -3 8 0
-7 -2 -9 0
-2 -5 -8 0
5 -2 10 0
-5 3 -7 0
-4 -7 3 0
2 -8 -7 0
9 -2 -5 0
-7 -1 4 0
10 7 -9 0
-7 6 -4 0
10 -4 3 0
5 -4 10 0
-6 3 10 0
5 3 -6 0
5 3 -6 0
-6 -4 -5 0
9 5 6 0
-10 -8 -3 0
-9 -3 -2 0
1 4 3 0
10 -9 7 0
-6 10 2 0
1 -9 -5 0
5 -4 7 0
5 6 -4 0
-2 7 -5 0
3 9 10 0
-4 -9 7 0
2 -3 -5 0
3 -2 9 0
1 -10 7 0
4 -8 1 0
-5 -1 -6 0
-5 2 9 0
-1 9 -10 0
5 1 10 0
4 1 8 0
10 6 4 0
3 -2 4 0
4 -1 3 0
9 -10 3 0
-6 -1 -8 0
